data/OOEBPP/R750/BPP_750_500_0.1_0.8_9.txt.ins
750
500 500
1 400 883
2 400 356
3 400 377
4 399 686
5 398 909
6 398 328
7 397 533
8 396 396
9 396 272
10 395 735
11 395 55
12 395 861
13 394 660
14 394 473
15 394 922
16 394 490
17 393 716
18 391 519
19 391 552
20 391 269
21 390 756
22 389 503
23 389 342
24 389 995
25 389 121
26 389 387
27 388 933
28 388 249
29 387 921
30 387 143
31 387 99
32 387 709
33 386 108
34 386 236
35 386 525
36 386 134
37 386 659
38 385 784
39 384 696
40 383 686
41 383 332
42 382 55
43 382 84
44 382 316
45 382 86
46 382 770
47 381 336
48 381 200
49 380 804
50 380 507
51 379 264
52 379 637
53 378 324
54 378 451
55 378 513
56 377 10
57 376 6
58 376 877
59 373 136
60 373 448
61 373 760
62 372 27
63 372 147
64 372 984
65 371 885
66 371 246
67 370 629
68 370 493
69 370 421
70 370 480
71 369 302
72 368 475
73 368 663
74 368 986
75 368 502
76 368 237
77 368 643
78 367 785
79 366 214
80 366 969
81 365 536
82 365 706
83 365 232
84 364 974
85 364 43
86 364 814
87 364 974
88 362 476
89 362 427
90 362 124
91 361 13
92 360 908
93 360 572
94 360 372
95 360 251
96 360 349
97 359 178
98 359 298
99 358 557
100 358 244
101 358 496
102 357 164
103 356 730
104 356 411
105 356 624
106 356 676
107 356 600
108 356 775
109 355 384
110 355 678
111 353 129
112 352 214
113 352 523
114 350 245
115 349 64
116 349 989
117 349 699
118 348 922
119 348 248
120 347 691
121 347 579
122 347 258
123 347 10
124 346 403
125 345 131
126 344 63
127 344 861
128 344 708
129 343 344
130 343 191
131 343 920
132 343 999
133 342 666
134 342 869
135 342 181
136 341 784
137 341 572
138 340 914
139 338 413
140 338 906
141 337 911
142 337 79
143 336 637
144 336 548
145 335 899
146 335 423
147 334 310
148 334 542
149 334 602
150 333 99
151 333 894
152 333 601
153 333 393
154 332 909
155 332 333
156 332 729
157 330 12
158 330 414
159 328 148
160 328 331
161 328 338
162 328 370
163 327 125
164 327 458
165 326 996
166 326 128
167 325 987
168 325 9
169 325 178
170 325 214
171 324 584
172 324 74
173 324 819
174 324 544
175 323 522
176 323 697
177 322 267
178 322 632
179 321 994
180 321 346
181 320 597
182 320 425
183 319 56
184 319 207
185 318 847
186 318 472
187 318 123
188 318 916
189 318 362
190 316 577
191 316 241
192 316 256
193 315 22
194 315 29
195 314 419
196 314 443
197 314 663
198 313 110
199 313 288
200 313 96
201 313 304
202 312 106
203 312 369
204 312 234
205 312 302
206 312 185
207 312 661
208 310 600
209 309 620
210 309 565
211 306 971
212 306 467
213 306 176
214 306 175
215 306 466
216 305 314
217 305 519
218 304 494
219 304 815
220 302 476
221 302 665
222 301 958
223 301 480
224 301 341
225 301 875
226 301 159
227 300 972
228 300 504
229 300 269
230 299 179
231 299 658
232 298 951
233 298 507
234 298 587
235 298 256
236 297 665
237 297 349
238 296 346
239 296 458
240 296 894
241 296 985
242 295 632
243 294 112
244 293 391
245 293 526
246 292 431
247 292 174
248 292 403
249 292 898
250 290 961
251 290 213
252 289 67
253 288 657
254 286 325
255 286 596
256 285 932
257 285 972
258 285 605
259 285 926
260 284 886
261 284 984
262 284 477
263 283 198
264 283 912
265 283 764
266 283 788
267 283 301
268 282 767
269 282 259
270 281 401
271 281 500
272 280 781
273 280 374
274 280 7
275 280 501
276 280 519
277 279 499
278 278 756
279 278 268
280 278 994
281 277 829
282 277 279
283 277 181
284 276 330
285 276 51
286 275 34
287 275 227
288 275 969
289 273 617
290 272 570
291 272 266
292 271 618
293 271 732
294 270 386
295 270 39
296 270 43
297 269 682
298 269 378
299 269 630
300 269 60
301 269 811
302 269 936
303 269 836
304 268 702
305 268 9
306 268 313
307 268 358
308 267 151
309 267 806
310 267 873
311 267 365
312 266 693
313 266 156
314 266 773
315 266 434
316 266 776
317 266 635
318 266 105
319 265 908
320 265 761
321 265 232
322 265 424
323 264 507
324 264 458
325 264 323
326 263 684
327 260 538
328 260 915
329 260 668
330 260 399
331 260 622
332 259 280
333 258 677
334 258 610
335 255 883
336 255 413
337 255 343
338 255 322
339 255 704
340 253 873
341 252 18
342 251 116
343 251 269
344 251 886
345 251 784
346 250 733
347 249 747
348 249 74
349 248 403
350 248 150
351 248 828
352 247 806
353 246 2
354 246 516
355 245 925
356 245 19
357 245 636
358 245 355
359 245 413
360 244 54
361 244 23
362 244 400
363 244 195
364 244 553
365 243 320
366 242 840
367 242 743
368 242 623
369 242 782
370 240 742
371 240 177
372 240 674
373 240 386
374 239 838
375 239 433
376 239 555
377 239 394
378 239 237
379 238 369
380 238 767
381 238 68
382 238 300
383 237 700
384 237 301
385 236 393
386 236 544
387 236 123
388 234 392
389 234 671
390 233 951
391 233 892
392 232 843
393 231 899
394 231 533
395 230 920
396 230 841
397 229 649
398 228 669
399 228 121
400 228 712
401 227 41
402 227 148
403 226 159
404 225 893
405 225 301
406 224 708
407 224 617
408 223 363
409 223 789
410 223 729
411 222 343
412 220 175
413 220 73
414 219 480
415 219 285
416 218 904
417 218 475
418 217 861
419 217 910
420 216 616
421 215 529
422 215 849
423 214 538
424 213 438
425 213 238
426 212 364
427 212 772
428 212 948
429 211 769
430 211 251
431 211 441
432 210 989
433 209 797
434 208 824
435 207 197
436 207 626
437 207 457
438 205 214
439 205 681
440 205 374
441 204 272
442 203 992
443 203 32
444 203 523
445 201 837
446 201 590
447 200 864
448 199 373
449 199 144
450 197 108
451 197 110
452 196 47
453 196 838
454 196 354
455 195 59
456 195 243
457 194 745
458 194 184
459 194 178
460 193 143
461 192 965
462 191 630
463 191 151
464 191 674
465 190 243
466 190 963
467 190 370
468 189 103
469 189 453
470 189 35
471 187 353
472 187 361
473 187 293
474 186 189
475 186 909
476 186 754
477 186 816
478 185 887
479 185 112
480 185 95
481 185 852
482 184 571
483 184 243
484 181 301
485 181 766
486 181 671
487 181 716
488 180 224
489 179 116
490 178 273
491 178 537
492 178 574
493 178 631
494 177 105
495 175 505
496 175 144
497 174 325
498 173 423
499 173 967
500 172 600
501 172 322
502 171 713
503 171 972
504 171 947
505 170 665
506 170 75
507 170 468
508 169 638
509 169 558
510 169 60
511 169 882
512 168 703
513 168 818
514 168 203
515 167 660
516 166 170
517 165 128
518 165 137
519 164 144
520 164 76
521 164 908
522 163 406
523 163 951
524 163 196
525 163 926
526 162 582
527 162 110
528 161 920
529 160 762
530 160 701
531 160 226
532 160 645
533 159 37
534 159 631
535 159 366
536 159 954
537 158 994
538 158 411
539 157 152
540 157 335
541 156 528
542 156 884
543 155 19
544 153 100
545 151 960
546 151 688
547 150 781
548 150 656
549 150 181
550 149 242
551 149 878
552 149 50
553 147 981
554 147 516
555 147 830
556 147 328
557 146 392
558 144 857
559 143 885
560 142 25
561 142 814
562 141 352
563 140 629
564 140 844
565 140 242
566 140 363
567 140 304
568 139 367
569 139 408
570 139 690
571 138 886
572 138 971
573 137 290
574 137 262
575 136 714
576 135 701
577 134 77
578 134 868
579 134 714
580 133 939
581 133 464
582 133 752
583 133 17
584 131 907
585 131 583
586 130 721
587 130 810
588 129 419
589 129 672
590 128 226
591 127 580
592 126 497
593 126 903
594 125 808
595 123 735
596 122 46
597 121 199
598 121 688
599 121 978
600 120 590
601 120 923
602 120 685
603 120 950
604 120 133
605 119 368
606 118 735
607 117 973
608 116 947
609 116 128
610 116 605
611 116 943
612 115 385
613 115 904
614 115 353
615 115 736
616 114 829
617 114 931
618 113 78
619 113 975
620 113 593
621 112 192
622 112 575
623 112 407
624 111 580
625 111 360
626 111 987
627 111 927
628 111 214
629 109 734
630 109 762
631 108 243
632 105 676
633 105 913
634 105 267
635 104 503
636 104 506
637 103 427
638 103 479
639 102 832
640 102 399
641 102 139
642 102 956
643 102 402
644 101 967
645 99 122
646 99 88
647 99 911
648 99 794
649 98 355
650 98 221
651 98 772
652 98 869
653 98 220
654 97 501
655 96 330
656 95 570
657 94 221
658 93 965
659 91 351
660 91 300
661 91 705
662 91 403
663 91 822
664 91 261
665 90 102
666 90 18
667 88 582
668 88 307
669 87 297
670 86 551
671 86 456
672 85 401
673 85 949
674 85 387
675 85 702
676 84 640
677 84 953
678 83 210
679 83 150
680 83 683
681 83 40
682 83 551
683 82 809
684 82 646
685 82 996
686 81 91
687 81 996
688 80 178
689 79 586
690 79 714
691 78 56
692 77 741
693 77 650
694 77 265
695 76 513
696 76 156
697 75 731
698 75 770
699 74 715
700 74 767
701 73 425
702 73 598
703 73 935
704 72 310
705 72 306
706 72 323
707 71 891
708 69 716
709 69 442
710 68 666
711 67 199
712 66 391
713 66 612
714 66 148
715 66 263
716 65 807
717 65 479
718 64 137
719 64 904
720 64 316
721 64 937
722 63 158
723 63 140
724 63 450
725 62 236
726 61 427
727 61 312
728 60 300
729 59 528
730 59 599
731 58 608
732 57 464
733 57 696
734 56 624
735 56 764
736 55 965
737 55 933
738 54 942
739 54 536
740 54 682
741 54 30
742 53 455
743 53 303
744 53 433
745 52 716
746 52 915
747 52 594
748 52 385
749 51 771
750 50 235
