results/OOEBPP/BPP_750_500_0.1_0.8_9.txt.ins.log
203,202.977,65.9182,OPT,8564,0,0,AI,0,0.0344828,3.40887,0.648518,64.2875,0,2,0,125,125
